380144.0
4022
0 1 2 4 5 6 7 9 10 11 13 14 16 17 20 21 22 25 26 27 29 30 31 32 33 34 35 38 39 40 42 43 44 45 48 49 50 51 54 55 56 57 58 59 60 61 65 66 69 70 71 72 73 74 75 76 77 78 79 80 81 83 84 85 87 88 89 90 91 92 93 94 98 99 101 103 104 106 108 109 110 111 112 113 114 115 116 117 118 119 120 122 123 124 126 127 128 129 130 132 133 135 136 137 138 139 141 142 143 145 146 148 149 151 152 153 154 156 158 159 160 161 165 166 167 171 172 173 174 175 176 177 178 179 180 182 183 184 185 186 188 189 190 191 192 193 194 196 197 198 199 